(set-info :smt-lib-version 2.6)
(set-logic QF_LRA)
(set-info :source | Clock Synchronization. Bruno Dutertre (bruno@csl.sri.com) |)
(set-info :category "industrial")
(set-info :status unsat)
(declare-fun x_0 () Real)
(declare-fun x_1 () Real)
(declare-fun x_2 () Real)
(declare-fun x_3 () Real)
(declare-fun x_4 () Real)
(declare-fun x_5 () Real)
(declare-fun x_6 () Real)
(declare-fun x_7 () Real)
(declare-fun x_8 () Real)
(declare-fun x_9 () Real)
(declare-fun x_10 () Real)
(declare-fun x_11 () Real)
(declare-fun x_12 () Real)
(declare-fun x_13 () Real)
(declare-fun x_14 () Real)
(declare-fun x_15 () Real)
(declare-fun x_16 () Real)
(declare-fun x_17 () Real)
(declare-fun x_18 () Real)
(declare-fun x_19 () Real)
(declare-fun x_20 () Real)
(declare-fun x_21 () Real)
(declare-fun x_22 () Real)
(declare-fun x_23 () Real)
(declare-fun x_24 () Real)
(declare-fun x_25 () Real)
(declare-fun x_26 () Real)
(declare-fun x_27 () Real)
(declare-fun x_28 () Real)
(declare-fun x_29 () Real)
(declare-fun x_30 () Real)
(declare-fun x_31 () Real)
(declare-fun x_32 () Real)
(declare-fun x_33 () Real)
(declare-fun x_34 () Real)
(declare-fun x_35 () Real)
(declare-fun x_36 () Real)
(declare-fun x_37 () Real)
(declare-fun x_38 () Real)
(declare-fun x_39 () Real)
(declare-fun x_40 () Real)
(declare-fun x_41 () Real)
(declare-fun x_42 () Real)
(declare-fun x_43 () Real)
(declare-fun x_44 () Real)
(declare-fun x_45 () Real)
(declare-fun x_46 () Real)
(declare-fun x_47 () Real)
(declare-fun x_48 () Real)
(declare-fun x_49 () Real)
(declare-fun x_50 () Real)
(declare-fun x_51 () Real)
(declare-fun x_52 () Real)
(declare-fun x_53 () Real)
(declare-fun x_54 () Real)
(declare-fun x_55 () Real)
(declare-fun x_56 () Real)
(declare-fun x_57 () Real)
(declare-fun x_58 () Real)
(declare-fun x_59 () Real)
(declare-fun x_60 () Real)
(declare-fun x_61 () Real)
(declare-fun x_62 () Real)
(declare-fun x_63 () Real)
(assert (let ((?v_53 (<= x_15 x_32)) (?v_57 (<= x_18 x_32)) (?v_61 (<= x_21 x_32)) (?v_65 (<= x_24 x_32)) (?v_69 (<= x_27 x_32)) (?v_73 (<= x_30 x_32)) (?v_17 (= x_39 x_32)) (?v_18 (= x_40 x_32)) (?v_19 (= x_41 x_32)) (?v_20 (= x_42 x_32)) (?v_21 (= x_43 x_32)) (?v_22 (= x_44 x_32))) (let ((?v_35 (not ?v_17)) (?v_38 (not ?v_18)) (?v_41 (not ?v_19)) (?v_44 (not ?v_20)) (?v_47 (not ?v_21)) (?v_50 (not ?v_22)) (?v_16 (+ (+ x_32 x_33) x_34))) (let ((?v_54 (= x_39 ?v_16)) (?v_58 (= x_40 ?v_16)) (?v_62 (= x_41 ?v_16)) (?v_66 (= x_42 ?v_16)) (?v_70 (= x_43 ?v_16)) (?v_74 (= x_44 ?v_16))) (let ((?v_95 (not ?v_54))) (let ((?v_77 (and ?v_53 ?v_95)) (?v_96 (not ?v_58))) (let ((?v_80 (and ?v_57 ?v_96)) (?v_97 (not ?v_62))) (let ((?v_83 (and ?v_61 ?v_97)) (?v_98 (not ?v_66))) (let ((?v_86 (and ?v_65 ?v_98)) (?v_99 (not ?v_70))) (let ((?v_89 (and ?v_69 ?v_99)) (?v_100 (not ?v_74))) (let ((?v_92 (and ?v_73 ?v_100)) (?v_2 (- x_1 x_14)) (?v_3 (- x_15 x_16)) (?v_4 (- x_2 x_17)) (?v_5 (- x_18 x_19)) (?v_6 (- x_3 x_20)) (?v_7 (- x_21 x_22)) (?v_8 (- x_4 x_23)) (?v_9 (- x_24 x_25)) (?v_10 (- x_5 x_26)) (?v_11 (- x_27 x_28)) (?v_12 (- x_6 x_29)) (?v_13 (- x_30 x_31)) (?v_14 (- x_32 x_37)) (?v_15 (- x_32 x_38)) (?v_23 (- x_1 x_8)) (?v_24 (- x_15 x_45)) (?v_25 (- x_2 x_9)) (?v_26 (- x_18 x_46)) (?v_27 (- x_3 x_10)) (?v_28 (- x_21 x_47)) (?v_29 (- x_4 x_11)) (?v_30 (- x_24 x_48)) (?v_31 (- x_5 x_12)) (?v_32 (- x_27 x_49)) (?v_33 (- x_6 x_13)) (?v_34 (- x_30 x_50)) (?v_36 (- x_1 x_51)) (?v_37 (- x_15 x_32)) (?v_39 (- x_2 x_52)) (?v_40 (- x_18 x_32)) (?v_42 (- x_3 x_53)) (?v_43 (- x_21 x_32)) (?v_45 (- x_4 x_54)) (?v_46 (- x_24 x_32)) (?v_48 (- x_5 x_55)) (?v_49 (- x_27 x_32)) (?v_51 (- x_6 x_56)) (?v_52 (- x_30 x_32)) (?v_78 (- x_51 x_8))) (let ((?v_55 (* ?v_78 1000)) (?v_56 (* (- x_51 x_13) 1000)) (?v_59 (* (- x_52 x_8) 1000)) (?v_60 (* (- x_52 x_13) 1000)) (?v_63 (* (- x_53 x_8) 1000)) (?v_64 (* (- x_53 x_13) 1000)) (?v_67 (* (- x_54 x_8) 1000)) (?v_68 (* (- x_54 x_13) 1000)) (?v_71 (* (- x_55 x_8) 1000)) (?v_72 (* (- x_55 x_13) 1000)) (?v_75 (* (- x_56 x_8) 1000)) (?v_93 (- x_56 x_13))) (let ((?v_76 (* ?v_93 1000)) (?v_79 (- x_32 x_45)) (?v_81 (- x_52 x_9)) (?v_82 (- x_32 x_46)) (?v_84 (- x_53 x_10)) (?v_85 (- x_32 x_47)) (?v_87 (- x_54 x_11)) (?v_88 (- x_32 x_48)) (?v_90 (- x_55 x_12)) (?v_91 (- x_32 x_49)) (?v_94 (- x_32 x_50)) (?v_101 (- x_14 x_51)) (?v_103 (- x_17 x_52)) (?v_105 (- x_20 x_53)) (?v_106 (- x_23 x_54)) (?v_107 (- x_26 x_55)) (?v_108 (- x_29 x_56)) (?v_0 (+ x_0 (/ 1001 1000))) (?v_1 (+ x_7 (/ 1001 1000))) (?v_102 (* (* x_34 999) (/ 1 1000))) (?v_104 (* (* x_34 1001) (/ 1 1000))) (?v_109 (+ (+ (+ x_35 x_36) (* (* (+ x_37 x_34) 2) (/ 1 999))) (/ 2335 666)))) (and (and (and (and (and (and (and (and (and (and (and (and (and (and (and (and (and (and (and (and (and (and (and (and (and (and (and (and (and (and (and (and (and (and (and (and (and (and (and (and (and (and (and (and (and (and (and (and (and (and (and (and (and (and (and (and (and (and (and (and (and (and (and (and (and (and (and (and (and (and (and (and (and (and (and (and (and (and (and (and (and (and (and (and (and (and (and (and (and (and (and (and (and (and (and (and (and (and (and (and (and (and (and (and (and (and (and (and (and (and (and (and (and (and (and (and (and (and (and (and (and (and (and (and (and (and (and (and (and (and (and (and (and (and (and (and (not (<= x_33 0)) (not (<= x_34 0))) (not (<= x_35 0))) (not (< x_36 (+ x_35 (* (* (+ (* (* x_34 1) (/ 1 2)) 1) 1001) (/ 1 999)))))) (< x_37 (- (* (* (- (- x_34 x_36) 1) 999) (/ 1 2)) 1))) (not (< x_37 (* (* (+ (+ (+ x_33 x_35) x_36) (/ 1501 1000)) 1001) (/ 1 999))))) (not (<= x_38 0))) (<= x_38 (- x_33 (+ (+ x_35 (* (* (+ x_34 2) 1001) (/ 1 999))) (/ 1 2))))) (<= x_0 x_1)) (<= x_0 x_2)) (<= x_0 x_3)) (<= x_0 x_4)) (<= x_0 x_5)) (<= x_0 x_6)) (<= x_1 ?v_0)) (<= x_2 ?v_0)) (<= x_3 ?v_0)) (<= x_4 ?v_0)) (<= x_5 ?v_0)) (<= x_6 ?v_0)) (<= x_7 x_8)) (<= x_7 x_9)) (<= x_7 x_10)) (<= x_7 x_11)) (<= x_7 x_12)) (<= x_7 x_13)) (<= x_8 ?v_1)) (<= x_9 ?v_1)) (<= x_10 ?v_1)) (<= x_11 ?v_1)) (<= x_12 ?v_1)) (<= x_13 ?v_1)) (<= (* (* ?v_3 999) (/ 1 1000)) ?v_2)) (<= (* (* ?v_5 999) (/ 1 1000)) ?v_4)) (<= (* (* ?v_7 999) (/ 1 1000)) ?v_6)) (<= (* (* ?v_9 999) (/ 1 1000)) ?v_8)) (<= (* (* ?v_11 999) (/ 1 1000)) ?v_10)) (<= (* (* ?v_13 999) (/ 1 1000)) ?v_12)) (<= ?v_2 (* (* ?v_3 1001) (/ 1 1000)))) (<= ?v_4 (* (* ?v_5 1001) (/ 1 1000)))) (<= ?v_6 (* (* ?v_7 1001) (/ 1 1000)))) (<= ?v_8 (* (* ?v_9 1001) (/ 1 1000)))) (<= ?v_10 (* (* ?v_11 1001) (/ 1 1000)))) (<= ?v_12 (* (* ?v_13 1001) (/ 1 1000)))) (<= ?v_14 x_45)) (<= ?v_14 x_46)) (<= ?v_14 x_47)) (<= ?v_14 x_48)) (<= ?v_14 x_49)) (<= ?v_14 x_50)) (<= x_45 ?v_15)) (<= x_46 ?v_15)) (<= x_47 ?v_15)) (<= x_48 ?v_15)) (<= x_49 ?v_15)) (<= x_50 ?v_15)) (<= (- x_45 x_45) x_36)) (<= (- x_46 x_45) x_36)) (<= (- x_47 x_45) x_36)) (<= (- x_48 x_45) x_36)) (<= (- x_49 x_45) x_36)) (<= (- x_50 x_45) x_36)) (<= (- x_45 x_46) x_36)) (<= (- x_46 x_46) x_36)) (<= (- x_47 x_46) x_36)) (<= (- x_48 x_46) x_36)) (<= (- x_49 x_46) x_36)) (<= (- x_50 x_46) x_36)) (<= (- x_45 x_47) x_36)) (<= (- x_46 x_47) x_36)) (<= (- x_47 x_47) x_36)) (<= (- x_48 x_47) x_36)) (<= (- x_49 x_47) x_36)) (<= (- x_50 x_47) x_36)) (<= (- x_45 x_48) x_36)) (<= (- x_46 x_48) x_36)) (<= (- x_47 x_48) x_36)) (<= (- x_48 x_48) x_36)) (<= (- x_49 x_48) x_36)) (<= (- x_50 x_48) x_36)) (<= (- x_45 x_49) x_36)) (<= (- x_46 x_49) x_36)) (<= (- x_47 x_49) x_36)) (<= (- x_48 x_49) x_36)) (<= (- x_49 x_49) x_36)) (<= (- x_50 x_49) x_36)) (<= (- x_45 x_50) x_36)) (<= (- x_46 x_50) x_36)) (<= (- x_47 x_50) x_36)) (<= (- x_48 x_50) x_36)) (<= (- x_49 x_50) x_36)) (<= (- x_50 x_50) x_36)) (or (and ?v_17 (<= x_15 x_57)) ?v_54)) (or (and ?v_18 (<= x_18 x_57)) ?v_58)) (or (and ?v_19 (<= x_21 x_57)) ?v_62)) (or (and ?v_20 (<= x_24 x_57)) ?v_66)) (or (and ?v_21 (<= x_27 x_57)) ?v_70)) (or (and ?v_22 (<= x_30 x_57)) ?v_74)) (or (or (or (or (or ?v_17 ?v_18) ?v_19) ?v_20) ?v_21) ?v_22)) (or ?v_35 (and (<= (* (* ?v_24 999) (/ 1 1000)) ?v_23) (<= ?v_23 (* (* ?v_24 1001) (/ 1 1000)))))) (or ?v_38 (and (<= (* (* ?v_26 999) (/ 1 1000)) ?v_25) (<= ?v_25 (* (* ?v_26 1001) (/ 1 1000)))))) (or ?v_41 (and (<= (* (* ?v_28 999) (/ 1 1000)) ?v_27) (<= ?v_27 (* (* ?v_28 1001) (/ 1 1000)))))) (or ?v_44 (and (<= (* (* ?v_30 999) (/ 1 1000)) ?v_29) (<= ?v_29 (* (* ?v_30 1001) (/ 1 1000)))))) (or ?v_47 (and (<= (* (* ?v_32 999) (/ 1 1000)) ?v_31) (<= ?v_31 (* (* ?v_32 1001) (/ 1 1000)))))) (or ?v_50 (and (<= (* (* ?v_34 999) (/ 1 1000)) ?v_33) (<= ?v_33 (* (* ?v_34 1001) (/ 1 1000)))))) (or (or ?v_35 ?v_53) (and (and (not (< x_0 x_51)) (<= (* (* ?v_37 999) (/ 1 1000)) ?v_36)) (<= ?v_36 (* (* ?v_37 1001) (/ 1 1000)))))) (or (or ?v_38 ?v_57) (and (and (not (< x_0 x_52)) (<= (* (* ?v_40 999) (/ 1 1000)) ?v_39)) (<= ?v_39 (* (* ?v_40 1001) (/ 1 1000)))))) (or (or ?v_41 ?v_61) (and (and (not (< x_0 x_53)) (<= (* (* ?v_43 999) (/ 1 1000)) ?v_42)) (<= ?v_42 (* (* ?v_43 1001) (/ 1 1000)))))) (or (or ?v_44 ?v_65) (and (and (not (< x_0 x_54)) (<= (* (* ?v_46 999) (/ 1 1000)) ?v_45)) (<= ?v_45 (* (* ?v_46 1001) (/ 1 1000)))))) (or (or ?v_47 ?v_69) (and (and (not (< x_0 x_55)) (<= (* (* ?v_49 999) (/ 1 1000)) ?v_48)) (<= ?v_48 (* (* ?v_49 1001) (/ 1 1000)))))) (or (or ?v_50 ?v_73) (and (and (not (< x_0 x_56)) (<= (* (* ?v_52 999) (/ 1 1000)) ?v_51)) (<= ?v_51 (* (* ?v_52 1001) (/ 1 1000)))))) (or ?v_77 (and (<= x_58 (+ (+ (* (* (+ (+ (+ x_45 (* ?v_55 (/ 1 999))) x_50) (* ?v_56 (/ 1 999))) 1) (/ 1 2)) x_35) (/ 3001 1998))) (not (< x_58 (- (- (* (* (+ (+ (+ x_45 (* ?v_55 (/ 1 1001))) x_50) (* ?v_56 (/ 1 1001))) 1) (/ 1 2)) x_35) (/ 1 2))))))) (or ?v_80 (and (<= x_59 (+ (+ (* (* (+ (+ (+ x_45 (* ?v_59 (/ 1 999))) x_50) (* ?v_60 (/ 1 999))) 1) (/ 1 2)) x_35) (/ 3001 1998))) (not (< x_59 (- (- (* (* (+ (+ (+ x_45 (* ?v_59 (/ 1 1001))) x_50) (* ?v_60 (/ 1 1001))) 1) (/ 1 2)) x_35) (/ 1 2))))))) (or ?v_83 (and (<= x_60 (+ (+ (* (* (+ (+ (+ x_45 (* ?v_63 (/ 1 999))) x_50) (* ?v_64 (/ 1 999))) 1) (/ 1 2)) x_35) (/ 3001 1998))) (not (< x_60 (- (- (* (* (+ (+ (+ x_45 (* ?v_63 (/ 1 1001))) x_50) (* ?v_64 (/ 1 1001))) 1) (/ 1 2)) x_35) (/ 1 2))))))) (or ?v_86 (and (<= x_61 (+ (+ (* (* (+ (+ (+ x_45 (* ?v_67 (/ 1 999))) x_50) (* ?v_68 (/ 1 999))) 1) (/ 1 2)) x_35) (/ 3001 1998))) (not (< x_61 (- (- (* (* (+ (+ (+ x_45 (* ?v_67 (/ 1 1001))) x_50) (* ?v_68 (/ 1 1001))) 1) (/ 1 2)) x_35) (/ 1 2))))))) (or ?v_89 (and (<= x_62 (+ (+ (* (* (+ (+ (+ x_45 (* ?v_71 (/ 1 999))) x_50) (* ?v_72 (/ 1 999))) 1) (/ 1 2)) x_35) (/ 3001 1998))) (not (< x_62 (- (- (* (* (+ (+ (+ x_45 (* ?v_71 (/ 1 1001))) x_50) (* ?v_72 (/ 1 1001))) 1) (/ 1 2)) x_35) (/ 1 2))))))) (or ?v_92 (and (<= x_63 (+ (+ (* (* (+ (+ (+ x_45 (* ?v_75 (/ 1 999))) x_50) (* ?v_76 (/ 1 999))) 1) (/ 1 2)) x_35) (/ 3001 1998))) (not (< x_63 (- (- (* (* (+ (+ (+ x_45 (* ?v_75 (/ 1 1001))) x_50) (* ?v_76 (/ 1 1001))) 1) (/ 1 2)) x_35) (/ 1 2))))))) (or ?v_77 (and (<= (* (* ?v_79 999) (/ 1 1000)) ?v_78) (<= ?v_78 (* (* ?v_79 1001) (/ 1 1000)))))) (or ?v_80 (and (<= (* (* ?v_82 999) (/ 1 1000)) ?v_81) (<= ?v_81 (* (* ?v_82 1001) (/ 1 1000)))))) (or ?v_83 (and (<= (* (* ?v_85 999) (/ 1 1000)) ?v_84) (<= ?v_84 (* (* ?v_85 1001) (/ 1 1000)))))) (or ?v_86 (and (<= (* (* ?v_88 999) (/ 1 1000)) ?v_87) (<= ?v_87 (* (* ?v_88 1001) (/ 1 1000)))))) (or ?v_89 (and (<= (* (* ?v_91 999) (/ 1 1000)) ?v_90) (<= ?v_90 (* (* ?v_91 1001) (/ 1 1000)))))) (or ?v_92 (and (<= (* (* ?v_94 999) (/ 1 1000)) ?v_93) (<= ?v_93 (* (* ?v_94 1001) (/ 1 1000)))))) (or ?v_95 (= x_16 (+ x_58 x_34)))) (or ?v_96 (= x_19 (+ x_59 x_34)))) (or ?v_97 (= x_22 (+ x_60 x_34)))) (or ?v_98 (= x_25 (+ x_61 x_34)))) (or ?v_99 (= x_28 (+ x_62 x_34)))) (or ?v_100 (= x_31 (+ x_63 x_34)))) (or ?v_95 (and (<= ?v_102 ?v_101) (<= ?v_101 ?v_104)))) (or ?v_96 (and (<= ?v_102 ?v_103) (<= ?v_103 ?v_104)))) (or ?v_97 (and (<= ?v_102 ?v_105) (<= ?v_105 ?v_104)))) (or ?v_98 (and (<= ?v_102 ?v_106) (<= ?v_106 ?v_104)))) (or ?v_99 (and (<= ?v_102 ?v_107) (<= ?v_107 ?v_104)))) (or ?v_100 (and (<= ?v_102 ?v_108) (<= ?v_108 ?v_104)))) (= x_57 (+ x_32 x_34))) (or (or (or (or (or (or (or (or (or (or (or (or (or (or (or (or (or (or (or (or (or (or (or (or (or (or (or (or (or (or (or (or (or (or (or (not (<= (- x_15 x_15) ?v_109)) (not (<= (- x_18 x_15) ?v_109))) (not (<= (- x_21 x_15) ?v_109))) (not (<= (- x_24 x_15) ?v_109))) (not (<= (- x_27 x_15) ?v_109))) (not (<= (- x_30 x_15) ?v_109))) (not (<= (- x_15 x_18) ?v_109))) (not (<= (- x_18 x_18) ?v_109))) (not (<= (- x_21 x_18) ?v_109))) (not (<= (- x_24 x_18) ?v_109))) (not (<= (- x_27 x_18) ?v_109))) (not (<= (- x_30 x_18) ?v_109))) (not (<= (- x_15 x_21) ?v_109))) (not (<= (- x_18 x_21) ?v_109))) (not (<= (- x_21 x_21) ?v_109))) (not (<= (- x_24 x_21) ?v_109))) (not (<= (- x_27 x_21) ?v_109))) (not (<= (- x_30 x_21) ?v_109))) (not (<= (- x_15 x_24) ?v_109))) (not (<= (- x_18 x_24) ?v_109))) (not (<= (- x_21 x_24) ?v_109))) (not (<= (- x_24 x_24) ?v_109))) (not (<= (- x_27 x_24) ?v_109))) (not (<= (- x_30 x_24) ?v_109))) (not (<= (- x_15 x_27) ?v_109))) (not (<= (- x_18 x_27) ?v_109))) (not (<= (- x_21 x_27) ?v_109))) (not (<= (- x_24 x_27) ?v_109))) (not (<= (- x_27 x_27) ?v_109))) (not (<= (- x_30 x_27) ?v_109))) (not (<= (- x_15 x_30) ?v_109))) (not (<= (- x_18 x_30) ?v_109))) (not (<= (- x_21 x_30) ?v_109))) (not (<= (- x_24 x_30) ?v_109))) (not (<= (- x_27 x_30) ?v_109))) (not (<= (- x_30 x_30) ?v_109)))))))))))))))))
(check-sat)
(exit)
